p cnf 17 19
-1 15 0 
-2 15 0 
-3 -4 15 0 
-3 15 0 
-5 -3 15 0 
-6 -7 15 0 
-8 15 0 
-6 16 0 
-6 17 0 
-9 -10 15 0 
-3 -9 15 0 
-3 -11 15 0 
-8 16 0 
-5 17 0 
-5 -12 -3 15 0 
-11 15 0 
-13 15 0 
-12 17 0 
-14 15 0 
